n_res = 4;
rcap = [17, 14, 86, 107];
rtype = [1, 1, 2, 2];
n_tasks = 16;
modes = [ {1, 2}, {3, 4}, {5, 6}, {7, 8}, {9, 10}, {11, 12}, {13, 14}, {15, 16}, {17, 18}, {19, 20}, {21, 22}, {23, 24}, {25, 26}, {27, 28}, {29, 30}, {31, 32} ];
succ = [ {7, 9, 13}, {4, 5, 16}, {7, 9}, {8, 11, 15}, {6, 8}, {12}, {10, 12, 16}, {10}, {10, 11, 12}, {14}, {14}, {14, 15}, {15, 16}, {}, {}, {} ];
n_opt = 32;
dur = [4, 7, 2, 10, 3, 4, 7, 7, 5, 6, 2, 9, 4, 4, 6, 9, 1, 9, 7, 9, 8, 9, 2, 8, 3, 3, 6, 8, 3, 5, 5, 6];
rreq = [| 10,  6,  6,  3,  6,  4,  7,  4, 10,  8,  5,  5,  6,  4, 10, 10,  7,  6,  8,  5,  9,  8,  8,  7,  6,  6,  2,  2,  7,  2,  2,  2
        |  5,  3,  5,  5,  5,  3,  5,  5,  4,  3,  8,  2,  7,  8,  7,  7,  7,  6,  7,  3,  6,  1,  6,  5,  8,  9,  5,  4,  6,  4,  8,  7
        | 10,  9,  5,  5,  3,  1,  7,  8,  3,  3,  4,  4,  7,  8,  6,  6,  7,  7,  3,  3,  5,  3,  7,  1,  4,  6,  5,  5,  6,  5,  5,  2
        |  8,  5,  8,  8,  7,  7,  7,  7,  7,  4,  7,  6,  7,  8,  8,  7,  8,  7,  6,  6,  5,  5,  6,  5,  9,  6,  8,  6,  5,  2,  5,  4 |];
